CPXPARAM_MIP_Strategy_HeuristicFreq#P37#0#3.043984#0.739559
CPXPARAM_MIP_Strategy_HeuristicFreq#P37#20#2.881400#0.700058
CPXPARAM_MIP_Strategy_HeuristicFreq#P37#40#4.115947#1.000000
CPXPARAM_MIP_Strategy_HeuristicFreq#P37#100#3.234103#0.785749
